4620851980428586059505,8,1,2,08,9,1,2,06,6,1,2,013,11,1,2,02,14,1,2,03,15,1,2,01,11,1,2,012,6,1,2,03,1,1,2,02,10,1,2,014,3,1,2,05,14,1,2,011,6,1,2,09,7,1,2,014,2,1,2,02,2,1,2,013,7,1,2,02,15,1,2,012,1,1,2,06,3,1,2,05,2,1,2,08,5,1,2,04,8,1,2,06,12,1,2,06,11,1,2,015,15,1,2,04,6,1,2,014,9,1,2,011,15,1,2,05,10,1,2,09,3,1,2,07,6,1,2,09,2,1,2,01,4,1,2,07,4,1,2,07,6,1,2,012,14,1,2,011,1,1,2,01,13,1,2,014,15,1,2,07,14,1,2,07,6,1,2,02,5,1,2,010,14,1,2,014,11,1,2,015,11,1,2,015,15,1,2,06,13,1,2,011,13,1,2,02,12,1,2,0